p cnf 11 25
3 1 2 0
3 2 4 0
3 4 5 0
3 5 6 0
3 6 7 0
3 7 8 0
3 8 9 0
3 9 1 0
10 1 2 0
10 2 4 0
10 4 5 0
10 5 6 0
10 6 7 0
10 7 8 0
10 8 9 0
10 9 1 0
11 1 2 0
11 2 4 0
11 4 5 0
11 5 6 0
11 6 7 0
11 7 8 0
11 8 9 0
11 9 1 0
3 10 11 0